    1C
    1U simple_canti.inp                                                 
    1UUSER                                                              
    1UDATE              02.october.2025                                 
    1UTIME              17:09:57                                        
    1UHOST                                                              
    1UPGM               CalculiX                                        
    1UVERSION           Version 2.22                             
    1UCOMPILETIME       Mon Aug  5 19:15:25 CEST 2024                    
    1UDIR                                                               
    1UDBN                                                               
    1UMAT    1MATERIALSOLID                                             
    2C                           200                                     1
 -1         1 0.00000E+00 1.60000E+02 4.00000E+01
 -1         2 0.00000E+00 6.16298E-32 4.00000E+01
 -1         3 4.00000E+01 6.16298E-32 4.00000E+01
 -1         4 4.00000E+01 1.60000E+02 4.00000E+01
 -1         5 0.00000E+00 1.60000E+02-4.93038E-31
 -1         6 4.00000E+01 1.60000E+02 0.00000E+00
 -1         7 0.00000E+00 0.00000E+00 0.00000E+00
 -1         8 4.00000E+01 0.00000E+00 0.00000E+00
 -1         9 0.00000E+00 1.20000E+02 4.00000E+01
 -1        10 0.00000E+00 8.00000E+01 4.00000E+01
 -1        11 0.00000E+00 4.00000E+01 4.00000E+01
 -1        12 0.00000E+00 1.40000E+02 4.00000E+01
 -1        13 0.00000E+00 1.00000E+02 4.00000E+01
 -1        14 0.00000E+00 6.00000E+01 4.00000E+01
 -1        15 0.00000E+00 2.00000E+01 4.00000E+01
 -1        16 2.00000E+01 6.16298E-32 4.00000E+01
 -1        17 4.00000E+01 1.20000E+02 4.00000E+01
 -1        18 4.00000E+01 8.00000E+01 4.00000E+01
 -1        19 4.00000E+01 4.00000E+01 4.00000E+01
 -1        20 4.00000E+01 1.40000E+02 4.00000E+01
 -1        21 4.00000E+01 1.00000E+02 4.00000E+01
 -1        22 4.00000E+01 6.00000E+01 4.00000E+01
 -1        23 4.00000E+01 2.00000E+01 4.00000E+01
 -1        24 2.00000E+01 1.60000E+02 4.00000E+01
 -1        25 0.00000E+00 1.60000E+02 2.00000E+01
 -1        26 4.00000E+01 1.60000E+02 2.00000E+01
 -1        27 2.00000E+01 1.60000E+02-4.93038E-31
 -1        28 0.00000E+00 4.00000E+01-1.23260E-31
 -1        29 0.00000E+00 8.00000E+01-2.46519E-31
 -1        30 0.00000E+00 1.20000E+02-3.69779E-31
 -1        31 0.00000E+00 2.00000E+01-6.16298E-32
 -1        32 0.00000E+00 6.00000E+01-1.84889E-31
 -1        33 0.00000E+00 1.00000E+02-3.08149E-31
 -1        34 0.00000E+00 1.40000E+02-4.31408E-31
 -1        35 4.00000E+01 4.00000E+01-1.23260E-31
 -1        36 4.00000E+01 8.00000E+01-2.46519E-31
 -1        37 4.00000E+01 1.20000E+02-3.69779E-31
 -1        38 4.00000E+01 2.00000E+01-6.16298E-32
 -1        39 4.00000E+01 6.00000E+01-1.84889E-31
 -1        40 4.00000E+01 1.00000E+02-3.08149E-31
 -1        41 4.00000E+01 1.40000E+02-4.31408E-31
 -1        42 2.00000E+01 0.00000E+00 0.00000E+00
 -1        43 0.00000E+00 3.08149E-32 2.00000E+01
 -1        44 4.00000E+01 3.08149E-32 2.00000E+01
 -1        45 2.00000E+01 2.00000E+01 4.00000E+01
 -1        46 2.00000E+01 1.00000E+02 4.00000E+01
 -1        47 2.00000E+01 1.40000E+02 4.00000E+01
 -1        48 2.00000E+01 6.00000E+01 4.00000E+01
 -1        49 1.00000E+01 1.50000E+02 4.00000E+01
 -1        50 3.00000E+01 1.50000E+02 4.00000E+01
 -1        51 1.00000E+01 1.30000E+02 4.00000E+01
 -1        52 3.00000E+01 1.00000E+01 4.00000E+01
 -1        53 1.00000E+01 1.00000E+01 4.00000E+01
 -1        54 1.00000E+01 3.00000E+01 4.00000E+01
 -1        55 3.00000E+01 3.00000E+01 4.00000E+01
 -1        56 3.00000E+01 1.30000E+02 4.00000E+01
 -1        57 1.00000E+01 9.00000E+01 4.00000E+01
 -1        58 1.00000E+01 1.10000E+02 4.00000E+01
 -1        59 3.00000E+01 1.10000E+02 4.00000E+01
 -1        60 2.00000E+01 1.20000E+02 4.00000E+01
 -1        61 1.00000E+01 5.00000E+01 4.00000E+01
 -1        62 1.00000E+01 7.00000E+01 4.00000E+01
 -1        63 3.00000E+01 9.00000E+01 4.00000E+01
 -1        64 2.00000E+01 8.00000E+01 4.00000E+01
 -1        65 3.00000E+01 7.00000E+01 4.00000E+01
 -1        66 2.00000E+01 4.00000E+01 4.00000E+01
 -1        67 3.00000E+01 5.00000E+01 4.00000E+01
 -1        68 2.00000E+01 1.60000E+02 2.00000E+01
 -1        69 3.00000E+01 1.60000E+02 3.00000E+01
 -1        70 1.00000E+01 1.60000E+02 3.00000E+01
 -1        71 1.00000E+01 1.60000E+02 1.00000E+01
 -1        72 3.00000E+01 1.60000E+02 1.00000E+01
 -1        73 2.00000E+01 2.00000E+01-6.16298E-32
 -1        74 2.00000E+01 6.00000E+01-1.84889E-31
 -1        75 2.00000E+01 1.00000E+02-3.08149E-31
 -1        76 2.00000E+01 1.40000E+02-4.31408E-31
 -1        77 3.00000E+01 1.50000E+02-4.62223E-31
 -1        78 1.00000E+01 1.50000E+02-4.62223E-31
 -1        79 1.00000E+01 1.30000E+02-4.00593E-31
 -1        80 3.00000E+01 1.30000E+02-4.00593E-31
 -1        81 1.00000E+01 1.00000E+01-3.08149E-32
 -1        82 3.00000E+01 1.00000E+01-3.08149E-32
 -1        83 1.00000E+01 3.00000E+01-9.24446E-32
 -1        84 3.00000E+01 3.00000E+01-9.24446E-32
 -1        85 1.00000E+01 7.00000E+01-2.15704E-31
 -1        86 1.00000E+01 5.00000E+01-1.54074E-31
 -1        87 2.00000E+01 4.00000E+01-1.23260E-31
 -1        88 3.00000E+01 5.00000E+01-1.54074E-31
 -1        89 1.00000E+01 1.10000E+02-3.38964E-31
 -1        90 1.00000E+01 9.00000E+01-2.77334E-31
 -1        91 3.00000E+01 7.00000E+01-2.15704E-31
 -1        92 2.00000E+01 8.00000E+01-2.46519E-31
 -1        93 3.00000E+01 9.00000E+01-2.77334E-31
 -1        94 3.00000E+01 1.10000E+02-3.38964E-31
 -1        95 2.00000E+01 1.20000E+02-3.69779E-31
 -1        96 2.00000E+01 3.08149E-32 2.00000E+01
 -1        97 1.00000E+01 4.62223E-32 3.00000E+01
 -1        98 3.00000E+01 4.62223E-32 3.00000E+01
 -1        99 1.00000E+01 1.54074E-32 1.00000E+01
 -1       100 3.00000E+01 1.54074E-32 1.00000E+01
 -1       101 4.00000E+01 1.40000E+02 2.00000E+01
 -1       102 4.00000E+01 2.00000E+01 2.00000E+01
 -1       103 4.00000E+01 1.00000E+02 2.00000E+01
 -1       104 4.00000E+01 6.00000E+01 2.00000E+01
 -1       105 4.00000E+01 1.00000E+01 1.00000E+01
 -1       106 4.00000E+01 1.00000E+01 3.00000E+01
 -1       107 4.00000E+01 3.00000E+01 3.00000E+01
 -1       108 4.00000E+01 1.50000E+02 3.00000E+01
 -1       109 4.00000E+01 1.50000E+02 1.00000E+01
 -1       110 4.00000E+01 1.30000E+02 3.00000E+01
 -1       111 4.00000E+01 1.30000E+02 1.00000E+01
 -1       112 4.00000E+01 3.00000E+01 1.00000E+01
 -1       113 4.00000E+01 9.00000E+01 3.00000E+01
 -1       114 4.00000E+01 1.10000E+02 3.00000E+01
 -1       115 4.00000E+01 1.20000E+02 2.00000E+01
 -1       116 4.00000E+01 1.10000E+02 1.00000E+01
 -1       117 4.00000E+01 5.00000E+01 3.00000E+01
 -1       118 4.00000E+01 7.00000E+01 3.00000E+01
 -1       119 4.00000E+01 9.00000E+01 1.00000E+01
 -1       120 4.00000E+01 8.00000E+01 2.00000E+01
 -1       121 4.00000E+01 7.00000E+01 1.00000E+01
 -1       122 4.00000E+01 4.00000E+01 2.00000E+01
 -1       123 4.00000E+01 5.00000E+01 1.00000E+01
 -1       124 0.00000E+00 1.40000E+02 2.00000E+01
 -1       125 0.00000E+00 2.00000E+01 2.00000E+01
 -1       126 0.00000E+00 1.00000E+02 2.00000E+01
 -1       127 0.00000E+00 6.00000E+01 2.00000E+01
 -1       128 0.00000E+00 1.50000E+02 1.00000E+01
 -1       129 0.00000E+00 1.50000E+02 3.00000E+01
 -1       130 0.00000E+00 1.30000E+02 3.00000E+01
 -1       131 0.00000E+00 1.00000E+01 3.00000E+01
 -1       132 0.00000E+00 1.00000E+01 1.00000E+01
 -1       133 0.00000E+00 3.00000E+01 3.00000E+01
 -1       134 0.00000E+00 1.30000E+02 1.00000E+01
 -1       135 0.00000E+00 3.00000E+01 1.00000E+01
 -1       136 0.00000E+00 1.10000E+02 3.00000E+01
 -1       137 0.00000E+00 9.00000E+01 3.00000E+01
 -1       138 0.00000E+00 1.20000E+02 2.00000E+01
 -1       139 0.00000E+00 1.10000E+02 1.00000E+01
 -1       140 0.00000E+00 7.00000E+01 3.00000E+01
 -1       141 0.00000E+00 5.00000E+01 3.00000E+01
 -1       142 0.00000E+00 8.00000E+01 2.00000E+01
 -1       143 0.00000E+00 9.00000E+01 1.00000E+01
 -1       144 0.00000E+00 7.00000E+01 1.00000E+01
 -1       145 0.00000E+00 4.00000E+01 2.00000E+01
 -1       146 0.00000E+00 5.00000E+01 1.00000E+01
 -1       147 2.00000E+01 8.00000E+01 2.00000E+01
 -1       148 2.00000E+01 1.30000E+02 3.00000E+01
 -1       149 2.00000E+01 1.40000E+02 2.00000E+01
 -1       150 3.00000E+01 1.40000E+02 1.00000E+01
 -1       151 1.00000E+01 1.40000E+02 1.00000E+01
 -1       152 1.00000E+01 1.30000E+02 2.00000E+01
 -1       153 1.00000E+01 6.00000E+01 3.00000E+01
 -1       154 2.00000E+01 5.00000E+01 3.00000E+01
 -1       155 3.00000E+01 6.00000E+01 3.00000E+01
 -1       156 2.00000E+01 6.00000E+01 2.00000E+01
 -1       157 2.00000E+01 1.00000E+02 2.00000E+01
 -1       158 1.00000E+01 1.10000E+02 2.00000E+01
 -1       159 1.00000E+01 1.00000E+02 1.00000E+01
 -1       160 1.00000E+01 1.00000E+02 3.00000E+01
 -1       161 1.00000E+01 2.00000E+01 1.00000E+01
 -1       162 2.00000E+01 2.00000E+01 2.00000E+01
 -1       163 2.00000E+01 3.00000E+01 1.00000E+01
 -1       164 3.00000E+01 2.00000E+01 1.00000E+01
 -1       165 1.00000E+01 2.00000E+01 3.00000E+01
 -1       166 3.00000E+01 2.00000E+01 3.00000E+01
 -1       167 2.00000E+01 3.00000E+01 3.00000E+01
 -1       168 3.00000E+01 1.00000E+02 3.00000E+01
 -1       169 2.00000E+01 1.10000E+02 3.00000E+01
 -1       170 3.00000E+01 1.00000E+02 1.00000E+01
 -1       171 1.00000E+01 1.40000E+02 3.00000E+01
 -1       172 3.00000E+01 1.40000E+02 3.00000E+01
 -1       173 1.00000E+01 5.00000E+01 2.00000E+01
 -1       174 3.00000E+01 6.00000E+01 1.00000E+01
 -1       175 1.00000E+01 6.00000E+01 1.00000E+01
 -1       176 2.00000E+01 1.10000E+02 1.00000E+01
 -1       177 3.00000E+01 1.30000E+02 2.00000E+01
 -1       178 3.00000E+01 1.20000E+02 1.00000E+01
 -1       179 2.00000E+01 5.00000E+01 1.00000E+01
 -1       180 2.00000E+01 4.00000E+01 2.00000E+01
 -1       181 1.00000E+01 1.00000E+01 2.00000E+01
 -1       182 2.00000E+01 1.00000E+01 3.00000E+01
 -1       183 3.00000E+01 1.00000E+01 2.00000E+01
 -1       184 2.00000E+01 1.00000E+01 1.00000E+01
 -1       185 1.00000E+01 1.50000E+02 2.00000E+01
 -1       186 2.00000E+01 1.50000E+02 3.00000E+01
 -1       187 3.00000E+01 1.50000E+02 2.00000E+01
 -1       188 2.00000E+01 1.50000E+02 1.00000E+01
 -1       189 1.00000E+01 7.00000E+01 2.00000E+01
 -1       190 3.00000E+01 7.00000E+01 2.00000E+01
 -1       191 2.00000E+01 7.00000E+01 3.00000E+01
 -1       192 2.00000E+01 7.00000E+01 1.00000E+01
 -1       193 2.00000E+01 9.00000E+01 3.00000E+01
 -1       194 2.00000E+01 9.00000E+01 1.00000E+01
 -1       195 1.00000E+01 9.00000E+01 2.00000E+01
 -1       196 3.00000E+01 9.00000E+01 2.00000E+01
 -1       197 3.00000E+01 8.00000E+01 1.00000E+01
 -1       198 1.00000E+01 8.00000E+01 1.00000E+01
 -1       199 1.00000E+01 8.00000E+01 3.00000E+01
 -1       200 3.00000E+01 8.00000E+01 3.00000E+01
 -3
    3C                            87                                     1
 -1         1    6    0    1
 -2       101         9       124        76       148       130       149       150       152       151
 -1         2    6    0    1
 -2        11       127        48       104       141       153        61       154       156       155
 -1         3    6    0    1
 -2        75        46         9       126       157        58       158       159       160       136
 -1         4    6    0    1
 -2       125        73        28       102       161        83       135       162       164       163
 -1         5    6    0    1
 -2        45       125        11       102       165       133        54       166       162       167
 -1         6    6    0    1
 -2        46        75         9       103       157       158        58       168       170       169
 -1         7    6    0    1
 -2         9       124        47       101       130       171        51       148       149       172
 -1         8    6    0    1
 -2        11       127       104        74       141       156       154       173       175       174
 -1         9    6    0    1
 -2        30        37       103        75        95       116       176        89        94       170
 -1        10    6    0    1
 -2        17        37        76       101       115        80       177       110       111       150
 -1        11    6    0    1
 -2        30       124         9        76       134       130       138        79       151       152
 -1        12    6    0    1
 -2        75         9       103        30       158       169       170        89       138       176
 -1        13    6    0    1
 -2        11        45       102        19        54       166       167        66        55       107
 -1        14    6    0    1
 -2        75         9        30       126       158       138        89       159       136       139
 -1        15    6    0    1
 -2       102        73        28        35       164        83       163       112        84        87
 -1        16    6    0    1
 -2        11       125        28       102       133       135       145       167       162       163
 -1        17    6    0    1
 -2        76        17       101         9       177       110       150       152        60       148
 -1        18    6    0    1
 -2        46         9        17       103        58        60        59       168       169       114
 -1        19    6    0    1
 -2       103        30         9        76       176       138       169       178        79       152
 -1        20    6    0    1
 -2        19        11        48       104        66        61        67       117       154       155
 -1        21    6    0    1
 -2        17         9        47       101        60        51        56       110       148       172
 -1        22    6    0    1
 -2        76        17         9       103       177        60       152       178       114       169
 -1        23    6    0    1
 -2        37        17        76       103       115       177        80       116       114       178
 -1        24    6    0    1
 -2        37        30       103        76        95       176       116        80        79       178
 -1        25    6    0    1
 -2       104        35        28        74       123        87       179       174        88        86
 -1        26    6    0    1
 -2       127        11        28        74       141       145       146       175       173        86
 -1        27    6    0    1
 -2       104        28        11        74       179       145       154       174        86       173
 -1        28    6    0    1
 -2        11        35       102        28       180       112       167       145        87       163
 -1        29    6    0    1
 -2        11        35        19       102       180       122        66       167       112       107
 -1        30    6    0    1
 -2        11        35       104        19       180       123       154        66       122       117
 -1        31    6    0    1
 -2        35        11       104        28       180       154       123        87       145       179
 -1        32    6    0    1
 -2        96       125        45       102       181       165       182       183       162       166
 -1        33    6    0    1
 -2        73       125        96       102       161       181       184       164       162       183
 -1        34    6    0    1
 -2        47       124        68       101       171       185       186       172       149       187
 -1        35    6    0    1
 -2       124        68       101        76       185       187       149       151       188       150
 -1        36    6    0    1
 -2       127        48       104       147       153       155       156       189       191       190
 -1        37    6    0    1
 -2       104        74       127       147       174       175       156       190       192       189
 -1        38    6    0    1
 -2        46       126        75       147       160       159       157       193       195       194
 -1        39    6    0    1
 -2        75       103        46       147       170       168       157       194       196       193
 -1        40    6    0    1
 -2        17        18        46       103        21        63        59       114       113       168
 -1        41    6    0    1
 -2         2         7       125        96        43       132       131        97        99       181
 -1        42    6    0    1
 -2        37       103        75        36       116       170        94        40       119        93
 -1        43    6    0    1
 -2         7       125        73        28       132       161        81        31       135        83
 -1        44    6    0    1
 -2       126        46         9        10       160        58       136       137        57        13
 -1        45    6    0    1
 -2        30        29        75       126        33        90        89       139       143       159
 -1        46    6    0    1
 -2         5       124        68         1       128       185        71        25       129        70
 -1        47    6    0    1
 -2        47         1       124         9        49       129       171        51        12       130
 -1        48    6    0    1
 -2         2       125        11        45       131       133        15        53       165        54
 -1        49    6    0    1
 -2        18        19        48       104        22        67        65       118       117       155
 -1        50    6    0    1
 -2        10        11       127        48        14       141       140        62        61       153
 -1        51    6    0    1
 -2        96        45         2         3       182        53        97        98        52        16
 -1        52    6    0    1
 -2         7        73        96         8        81       184        99        42        82       100
 -1        53    6    0    1
 -2       127        28        29        74       146        32       144       175        86        85
 -1        54    6    0    1
 -2         3       102        45        19       106       166        52        23       107        55
 -1        55    6    0    1
 -2        68         1        47         4        70        49       186        69        24        50
 -1        56    6    0    1
 -2         4        17        47       101        20        56        50       108       110       172
 -1        57    6    0    1
 -2        68         4       101         6        69       108       187        72        26       109
 -1        58    6    0    1
 -2       124        30         5        76       134        34       128       151        79        78
 -1        59    6    0    1
 -2        68         5         6        76        71        27        72       188        78        77
 -1        60    6    0    1
 -2        76         6       101        37        77       109       150        80        41       111
 -1        61    6    0    1
 -2       104        36        35        74       121        39       123       174        91        88
 -1        62    6    0    1
 -2        96       102         3         8       183       106        98       100       105        44
 -1        63    6    0    1
 -2        35       102        73         8       112       164        84        38       105        82
 -1        64    6    0    1
 -2        36        75        29       147        93        90        92       197       194       198
 -1        65    6    0    1
 -2        10       127        29       147       140       144       142       199       189       198
 -1        66    6    0    1
 -2        18        48        10       147        65        62        64       200       191       199
 -1        67    6    0    1
 -2        36       104        18       147       121       118       120       197       190       200
 -1        68    6    0    1
 -2        29        74        36       147        85        91        92       198       192       197
 -1        69    6    0    1
 -2        29       126        10       147       143       137       142       198       195       199
 -1        70    6    0    1
 -2        10        46        18       147        57        63        64       199       193       200
 -1        71    6    0    1
 -2        18       103        36       147       113       119       120       200       196       197
 -1        72    6    0    1
 -2         1       124        68        47       129       185        70        49       171       186
 -1        73    6    0    1
 -2       102        96        73         8       183       184       164       105       100        82
 -1        74    6    0    1
 -2        45         2       125        96        53       131       165       182        97       181
 -1        75    6    0    1
 -2        73       125         7        96       161       132        81       184       181        99
 -1        76    6    0    1
 -2        45        96       102         3       182       183       166        52        98       106
 -1        77    6    0    1
 -2        47        68         4       101       186        69        50       172       187       108
 -1        78    6    0    1
 -2        68       124         5        76       185       128        71       188       151        78
 -1        79    6    0    1
 -2         6       101        68        76       109       187        72        77       150       188
 -1        80    6    0    1
 -2       127        10        48       147       140        62       153       189       199       191
 -1        81    6    0    1
 -2       104        48        18       147       155        65       118       190       191       200
 -1        82    6    0    1
 -2        29       127        74       147       144       175        85       198       189       192
 -1        83    6    0    1
 -2        36        74       104       147        91       174       121       197       192       190
 -1        84    6    0    1
 -2        29        75       126       147        90       159       143       198       194       195
 -1        85    6    0    1
 -2        36       103        75       147       119       170        93       197       196       194
 -1        86    6    0    1
 -2        46        10       126       147        57       137       160       193       199       195
 -1        87    6    0    1
 -2        18        46       103       147        63       168       113       200       193       196
 -3
    1PSTEP                         1           1           1          
  100CL  101 1.000000000         200                     0    1           1
 -4  DISP        4    1
 -5  D1          1    2    1    0
 -5  D2          1    2    2    0
 -5  D3          1    2    3    0
 -5  ALL         1    2    0    0    1ALL
 -1         1 0.00000E+00 0.00000E+00 0.00000E+00
 -1         2-4.66220E-05-4.79238E-03-2.93240E-02
 -1         3 3.29990E-05-4.79372E-03-2.93286E-02
 -1         4 0.00000E+00 0.00000E+00 0.00000E+00
 -1         5 0.00000E+00 0.00000E+00 0.00000E+00
 -1         6 0.00000E+00 0.00000E+00 0.00000E+00
 -1         7-1.32614E-05 4.67301E-03-2.91917E-02
 -1         8-3.98706E-06 4.67355E-03-2.91945E-02
 -1         9 3.19842E-04-2.56476E-03-3.38537E-03
 -1        10 1.38194E-04-4.02589E-03-1.06751E-02
 -1        11 3.29265E-05-4.64196E-03-1.97366E-02
 -1        12 4.28089E-04-1.40400E-03-1.12118E-03
 -1        13 2.47116E-04-3.43333E-03-6.66276E-03
 -1        14 7.11942E-05-4.43004E-03-1.50676E-02
 -1        15-7.55533E-06-4.74823E-03-2.44762E-02
 -1        16-6.63910E-06-4.79342E-03-2.92404E-02
 -1        17-3.19329E-04-2.51884E-03-3.39462E-03
 -1        18-1.51183E-04-4.03072E-03-1.06815E-02
 -1        19-3.35059E-05-4.64651E-03-1.97536E-02
 -1        20-4.31200E-04-1.40333E-03-1.13288E-03
 -1        21-2.55927E-04-3.43977E-03-6.66560E-03
 -1        22-8.25091E-05-4.43424E-03-1.50748E-02
 -1        23-2.29968E-06-4.75100E-03-2.44810E-02
 -1        24 0.00000E+00 0.00000E+00 0.00000E+00
 -1        25 0.00000E+00 0.00000E+00 0.00000E+00
 -1        26 0.00000E+00 0.00000E+00 0.00000E+00
 -1        27 0.00000E+00 0.00000E+00 0.00000E+00
 -1        28-6.46488E-05 4.59289E-03-1.96790E-02
 -1        29-1.81890E-04 3.98245E-03-1.06040E-02
 -1        30-3.41868E-04 2.54362E-03-3.34458E-03
 -1        31-2.77964E-05 4.66581E-03-2.44343E-02
 -1        32-1.03288E-04 4.37804E-03-1.50241E-02
 -1        33-2.79712E-04 3.40761E-03-6.61173E-03
 -1        34-4.33913E-04 1.40325E-03-1.08812E-03
 -1        35 3.84482E-05 4.55873E-03-1.96908E-02
 -1        36 1.64575E-04 3.98680E-03-1.06115E-02
 -1        37 3.39376E-04 2.52694E-03-3.35446E-03
 -1        38 8.46498E-06 4.66158E-03-2.44361E-02
 -1        39 8.50792E-05 4.37739E-03-1.50291E-02
 -1        40 2.61694E-04 3.41743E-03-6.61724E-03
 -1        41 4.29111E-04 1.39487E-03-1.08221E-03
 -1        42-8.92894E-06 4.68547E-03-2.91924E-02
 -1        43-1.40392E-05-4.63286E-05-2.92074E-02
 -1        44-1.42528E-06-4.57716E-05-2.92104E-02
 -1        45-5.94264E-06-4.76053E-03-2.44836E-02
 -1        46-4.25991E-06-3.43621E-03-6.78952E-03
 -1        47 1.42086E-06-1.40846E-03-1.30809E-03
 -1        48-6.54954E-06-4.44886E-03-1.51178E-02
 -1        49 1.15893E-04-6.59535E-04-5.61702E-04
 -1        50-1.14408E-04-6.61100E-04-5.65808E-04
 -1        51 1.95826E-04-2.02981E-03-2.24231E-03
 -1        52 3.15091E-06-4.77861E-03-2.68646E-02
 -1        53-1.62260E-05-4.77786E-03-2.68618E-02
 -1        54 6.72773E-06-4.70965E-03-2.20989E-02
 -1        55-1.55245E-05-4.71473E-03-2.20965E-02
 -1        56-2.08248E-04-2.02101E-03-2.23795E-03
 -1        57 9.88197E-05-3.78108E-03-8.65508E-03
 -1        58 1.48852E-04-3.02224E-03-5.02875E-03
 -1        59-1.45360E-04-3.04001E-03-5.03623E-03
 -1        60 6.18520E-06-2.56036E-03-3.54698E-03
 -1        61 2.08878E-05-4.56579E-03-1.73932E-02
 -1        62 4.81342E-05-4.27580E-03-1.28533E-02
 -1        63-1.13161E-04-3.78617E-03-8.65668E-03
 -1        64-6.14654E-06-4.07856E-03-1.07089E-02
 -1        65-6.01551E-05-4.27883E-03-1.28585E-02
 -1        66-8.09256E-06-4.64786E-03-1.97399E-02
 -1        67-3.40304E-05-4.56843E-03-1.73865E-02
 -1        68 0.00000E+00 0.00000E+00 0.00000E+00
 -1        69 0.00000E+00 0.00000E+00 0.00000E+00
 -1        70 0.00000E+00 0.00000E+00 0.00000E+00
 -1        71 0.00000E+00 0.00000E+00 0.00000E+00
 -1        72 0.00000E+00 0.00000E+00 0.00000E+00
 -1        73-1.05809E-05 4.67335E-03-2.44415E-02
 -1        74-9.81005E-06 4.38929E-03-1.50773E-02
 -1        75-6.69042E-06 3.41631E-03-6.75078E-03
 -1        76 1.41664E-05 1.38294E-03-1.24834E-03
 -1        77 1.17423E-04 6.49465E-04-5.41134E-04
 -1        78-1.10951E-04 6.47553E-04-5.41016E-04
 -1        79-1.98572E-04 2.00282E-03-2.20939E-03
 -1        80 1.92258E-04 1.98480E-03-2.21887E-03
 -1        81-1.42369E-05 4.68017E-03-2.68192E-02
 -1        82-3.81430E-06 4.68040E-03-2.68197E-02
 -1        83-3.08771E-05 4.64272E-03-2.20609E-02
 -1        84 4.72842E-06 4.63360E-03-2.20681E-02
 -1        85-7.27107E-05 4.22454E-03-1.28204E-02
 -1        86-3.90512E-05 4.50017E-03-1.73621E-02
 -1        87-1.07060E-05 4.57874E-03-1.97046E-02
 -1        88 2.61542E-05 4.50190E-03-1.73561E-02
 -1        89-1.68204E-04 2.99970E-03-4.98152E-03
 -1        90-1.22636E-04 3.74754E-03-8.62391E-03
 -1        91 5.35518E-05 4.22705E-03-1.28260E-02
 -1        92-8.89834E-06 4.03474E-03-1.06867E-02
 -1        93 1.07422E-04 3.75170E-03-8.62477E-03
 -1        94 1.49020E-04 3.02686E-03-4.99470E-03
 -1        95-1.75853E-05 2.54695E-03-3.52726E-03
 -1        96-8.07368E-06-4.38640E-05-2.91973E-02
 -1        97-1.14594E-05-2.40992E-03-2.92287E-02
 -1        98-3.44202E-06-2.41004E-03-2.92309E-02
 -1        99-9.06592E-06 2.31408E-03-2.91933E-02
 -1       100-7.82088E-06 2.31360E-03-2.91947E-02
 -1       101-6.29246E-06-3.46640E-06-8.41578E-04
 -1       102-5.16667E-06-3.61979E-05-2.44379E-02
 -1       103-1.23278E-05-2.31764E-05-6.49900E-03
 -1       104-1.11291E-06-3.09771E-05-1.49863E-02
 -1       105-3.18213E-06 2.31083E-03-2.68211E-02
 -1       106 1.82003E-06-2.39333E-03-2.68600E-02
 -1       107-1.60725E-05-2.36919E-03-2.20662E-02
 -1       108-1.50077E-04-2.78509E-04-1.93733E-04
 -1       109 1.49189E-04 2.76406E-04-1.85263E-04
 -1       110-1.89751E-04-9.71814E-04-1.94923E-03
 -1       111 2.05288E-04 9.61115E-04-1.92902E-03
 -1       112 1.13963E-05 2.29140E-03-2.20459E-02
 -1       113-1.02082E-04-1.86794E-03-8.49244E-03
 -1       114-1.61300E-04-1.50380E-03-4.77923E-03
 -1       115 7.58440E-06-2.30040E-05-3.17261E-03
 -1       116 1.62458E-04 1.47432E-03-4.74886E-03
 -1       117-2.97369E-05-2.28377E-03-1.73369E-02
 -1       118-7.00957E-05-2.12657E-03-1.27555E-02
 -1       119 9.62719E-05 1.82738E-03-8.46710E-03
 -1       120-3.72993E-06-2.38204E-05-1.05339E-02
 -1       121 6.64143E-05 2.07251E-03-1.27295E-02
 -1       122-3.17871E-06-2.73101E-05-1.96731E-02
 -1       123 2.40310E-05 2.21891E-03-1.73172E-02
 -1       124-3.17919E-06-3.56465E-06-8.38843E-04
 -1       125-1.28078E-05-4.01711E-05-2.44346E-02
 -1       126-1.16098E-05-1.68418E-05-6.49862E-03
 -1       127-1.13575E-05-3.04394E-05-1.49823E-02
 -1       128-1.50319E-04 2.79125E-04-1.85298E-04
 -1       129 1.47325E-04-2.77727E-04-1.92329E-04
 -1       130 1.83754E-04-9.67759E-04-1.93547E-03
 -1       131-1.64480E-05-2.39395E-03-2.68562E-02
 -1       132-1.46022E-05 2.30985E-03-2.68185E-02
 -1       133 5.41783E-07-2.36673E-03-2.20611E-02
 -1       134-2.23172E-04 9.72498E-04-1.92267E-03
 -1       135-2.97551E-05 2.29080E-03-2.20444E-02
 -1       136 1.36535E-04-1.49276E-03-4.78892E-03
 -1       137 8.86149E-05-1.86194E-03-8.48551E-03
 -1       138-3.12344E-06-1.51512E-05-3.17359E-03
 -1       139-1.54637E-04 1.47636E-03-4.75629E-03
 -1       140 5.56335E-05-2.12387E-03-1.27512E-02
 -1       141 2.02154E-05-2.27588E-03-1.73293E-02
 -1       142-1.14272E-05-2.34787E-05-1.05278E-02
 -1       143-1.15614E-04 1.82429E-03-8.45861E-03
 -1       144-8.10953E-05 2.07017E-03-1.27254E-02
 -1       145-1.37496E-05-4.05598E-05-1.96695E-02
 -1       146-4.92139E-05 2.22002E-03-1.73084E-02
 -1       147-7.26452E-06-2.27113E-05-1.06075E-02
 -1       148-1.05704E-05-9.97382E-04-2.11047E-03
 -1       149-2.06223E-06-2.08257E-05-9.93697E-04
 -1       150 1.11718E-04 6.62076E-04-1.02231E-03
 -1       151-1.13456E-04 6.59730E-04-1.02706E-03
 -1       152-1.73164E-05-8.69696E-06-1.99922E-03
 -1       153 1.30399E-05-2.21761E-03-1.50423E-02
 -1       154-1.14126E-05-2.28494E-03-1.73542E-02
 -1       155-2.50778E-05-2.22033E-03-1.50441E-02
 -1       156-6.47355E-06-3.31401E-05-1.50257E-02
 -1       157-5.59161E-06-1.90533E-05-6.63487E-03
 -1       158-2.75312E-06-1.06645E-05-4.83865E-03
 -1       159-7.01694E-05 1.67780E-03-6.61768E-03
 -1       160 5.24628E-05-1.71370E-03-6.63551E-03
 -1       161-1.46658E-05 2.30907E-03-2.44367E-02
 -1       162-7.55892E-06-3.97455E-05-2.44435E-02
 -1       163-1.12123E-05 2.29651E-03-2.20577E-02
 -1       164-2.94267E-06 2.30852E-03-2.44381E-02
 -1       165-7.69995E-06-2.38963E-03-2.44507E-02
 -1       166-7.59584E-06-2.38846E-03-2.44528E-02
 -1       167-4.45143E-06-2.36824E-03-2.20728E-02
 -1       168-7.60260E-05-1.71617E-03-6.64371E-03
 -1       169-1.77162E-06-1.50884E-03-4.94429E-03
 -1       170 6.52056E-05 1.68804E-03-6.62762E-03
 -1       171 1.07773E-04-6.60751E-04-1.05043E-03
 -1       172-1.11329E-04-6.60211E-04-1.05828E-03
 -1       173-1.07565E-05-3.40526E-05-1.73300E-02
 -1       174 1.29332E-05 2.16813E-03-1.50250E-02
 -1       175-3.32451E-05 2.16348E-03-1.50233E-02
 -1       176-3.46635E-06 1.48987E-03-4.90809E-03
 -1       177-3.63442E-08-1.44541E-05-2.01195E-03
 -1       178 8.97339E-05 1.22894E-03-3.34501E-03
 -1       179-5.61292E-06 2.22646E-03-1.73405E-02
 -1       180-7.36177E-06-3.47992E-05-1.96867E-02
 -1       181-7.97944E-06-4.07489E-05-2.68237E-02
 -1       182-7.30926E-06-2.40343E-03-2.68350E-02
 -1       183-7.93810E-06-4.02077E-05-2.68250E-02
 -1       184-8.82263E-06 2.31514E-03-2.68213E-02
 -1       185-4.41560E-07-2.77386E-06-2.72658E-04
 -1       186-1.35616E-06-2.88726E-04-3.33056E-04
 -1       187-3.09169E-06 3.16693E-07-2.73672E-04
 -1       188-1.89402E-07 2.86520E-04-3.19741E-04
 -1       189-7.75889E-06-2.62414E-05-1.27619E-02
 -1       190-6.69059E-06-2.65966E-05-1.27652E-02
 -1       191-6.91283E-06-2.13192E-03-1.28037E-02
 -1       192-8.35719E-06 2.08333E-03-1.27913E-02
 -1       193-6.42211E-06-1.88921E-03-8.57692E-03
 -1       194-7.06295E-06 1.85008E-03-8.56776E-03
 -1       195-7.73837E-06-2.06093E-05-8.52193E-03
 -1       196-8.89601E-06-2.15787E-05-8.52559E-03
 -1       197 3.42801E-05 1.97388E-03-1.06083E-02
 -1       198-4.96064E-05 1.97280E-03-1.06041E-02
 -1       199 3.14317E-05-2.01722E-03-1.06219E-02
 -1       200-4.61215E-05-2.01804E-03-1.06256E-02
 -3
    1PSTEP                         2           1           1          
  100CL  101 1.000000000         200                     0    1           1
 -4  STRESS      6    1
 -5  SXX         1    4    1    1
 -5  SYY         1    4    2    2
 -5  SZZ         1    4    3    3
 -5  SXY         1    4    1    2
 -5  SYZ         1    4    2    3
 -5  SZX         1    4    3    1
 -1         1 1.45208E-01 3.23541E-01 1.17638E-01-3.41825E-02 2.29843E-02-1.42949E-02
 -1         2 2.07275E-03 1.45948E-03-1.90055E-02 2.79361E-03 4.25308E-03 4.86636E-03
 -1         3 2.06635E-03 1.32822E-03-1.91224E-02-2.80399E-03 4.13221E-03-4.87034E-03
 -1         4 1.44866E-01 3.24796E-01 1.16936E-01 3.40198E-02 2.34497E-02 1.43247E-02
 -1         5-1.44877E-01-3.23353E-01-1.18136E-01 3.34085E-02 2.12919E-02-1.48833E-02
 -1         6-1.44996E-01-3.22949E-01-1.18589E-01-3.37562E-02 2.07523E-02 1.54843E-02
 -1         7 5.81353E-04 4.80937E-04 7.92098E-04-1.35096E-04-3.45841E-04-4.46257E-04
 -1         8 6.53643E-04 7.05554E-04 6.41399E-04 3.58899E-04-3.46655E-04 2.94744E-04
 -1         9 1.45451E-04 1.83529E-01-8.83016E-03 4.87175E-03 1.48619E-02 3.89001E-03
 -1        10 1.54776E-03 8.66357E-02-1.08500E-02 1.92473E-03 1.14563E-02 3.06603E-03
 -1        11-9.50986E-05 2.80967E-02-5.56473E-03 1.09800E-03 7.06581E-03 1.18942E-03
 -1        12 1.09258E-02 2.35274E-01-5.69551E-03-2.66201E-03 6.00311E-03-9.44654E-04
 -1        13 4.72000E-03 1.32415E-01-6.23938E-03 5.51223E-03 1.17410E-02 2.60770E-03
 -1        14-4.41837E-04 5.19349E-02-1.10219E-02 8.24347E-04 7.07870E-03 2.06222E-03
 -1        15 1.42686E-03 1.03001E-02-1.08383E-02 2.60328E-03 4.09974E-03 2.79696E-03
 -1        16 2.26482E-03 6.14645E-04-1.44499E-02-5.25217E-05 3.61664E-03-4.53864E-05
 -1        17-2.75116E-03 1.85928E-01-1.15631E-02-7.13692E-03 1.62294E-02-4.53628E-03
 -1        18 1.49579E-03 8.54008E-02-1.08693E-02-2.33652E-03 1.09682E-02-3.18461E-03
 -1        19 2.08490E-03 2.34465E-02-9.58680E-03-1.72911E-03 4.85468E-03-2.66838E-03
 -1        20 1.26344E-02 2.31401E-01-6.55532E-03 3.30127E-03 8.59144E-03-8.26899E-04
 -1        21 2.48516E-03 1.35005E-01-9.63749E-03-1.48785E-03 1.40122E-02-3.77712E-04
 -1        22 8.20685E-04 5.21333E-02-1.16636E-02-1.35530E-03 7.94145E-03-3.59279E-03
 -1        23 1.67556E-03 9.65835E-03-1.20574E-02-1.95337E-03 3.63022E-03-3.08140E-03
 -1        24 2.12115E-01 3.77093E-01 2.12115E-01-1.03619E-04 6.33604E-02-3.33299E-11
 -1        25-1.09455E-03-1.94586E-03-1.09454E-03 1.87968E-04-5.59325E-03-4.74098E-08
 -1        26 1.27352E-04 2.26409E-04 1.27362E-04-3.02214E-04-5.59304E-03 4.77610E-08
 -1        27-2.08379E-01-3.70450E-01-2.08379E-01 8.17597E-05 6.12884E-02 2.54249E-09
 -1        28 1.22459E-03-2.42234E-02-4.45940E-04-1.75848E-03 4.28929E-03-1.04203E-04
 -1        29 6.37212E-04-8.64270E-02 3.39152E-04-2.04234E-03 1.12704E-02 7.97545E-05
 -1        30 2.33036E-03-1.78270E-01 5.61947E-03-6.39579E-03 1.33932E-02 2.10001E-03
 -1        31-1.36064E-04-7.49153E-03-4.19488E-04-1.19221E-03 2.22308E-03 2.45683E-04
 -1        32 9.83159E-04-5.54029E-02-5.76251E-04-2.82670E-03 6.99782E-03-1.17242E-03
 -1        33-2.57429E-03-1.31811E-01 1.35499E-04-5.35751E-03 1.13481E-02 2.01151E-03
 -1        34-1.36613E-02-2.38129E-01-4.84380E-03 6.97107E-04 6.74363E-03-7.29222E-03
 -1        35-4.58830E-04-2.39870E-02 6.94284E-04 1.12260E-03 7.80719E-03-4.89713E-04
 -1        36 5.37175E-04-8.57287E-02 1.49448E-04 2.44784E-03 1.07675E-02-1.66218E-04
 -1        37 8.38261E-03-1.84709E-01 5.92228E-03 6.82901E-03 1.04146E-02 1.03676E-03
 -1        38 5.38027E-06-1.05884E-02-3.93121E-04 3.91933E-04 3.56150E-03 4.42471E-04
 -1        39-2.58651E-04-5.22373E-02-2.73689E-04 1.47221E-03 8.42572E-03-8.09730E-04
 -1        40 1.60210E-03-1.30309E-01 5.44503E-03 2.56421E-03 1.09281E-02 1.68228E-03
 -1        41-9.86289E-03-2.35512E-01-5.58846E-03-1.38273E-04 6.85989E-03 7.85258E-03
 -1        42 1.92325E-03 1.78203E-03 1.21601E-03 8.22990E-05-2.26724E-04-4.31336E-05
 -1        43 4.56435E-04 3.57967E-04-1.17508E-02 8.85722E-04 1.68013E-03 6.14962E-04
 -1        44 3.73749E-04-6.54587E-05-1.20951E-02-7.90448E-04 1.64267E-03-6.70795E-04
 -1        45 1.95164E-03 1.02256E-02-2.49244E-03-3.60584E-05-6.75943E-04 2.31617E-04
 -1        46-3.14493E-03 1.31079E-01-5.40830E-03-1.79641E-04 8.93845E-03-1.07688E-04
 -1        47 2.50795E-03 2.59870E-01-2.10520E-02 7.68852E-05 1.51623E-02-5.59605E-04
 -1        48 2.73866E-03 5.16716E-02-5.32733E-03-6.25280E-05 1.85319E-03 1.05684E-04
 -1        49 6.30576E-02 2.89901E-01 2.58559E-02-1.81324E-02 2.40607E-02-7.11466E-03
 -1        50 6.23533E-02 2.90791E-01 2.64462E-02 1.80547E-02 2.40027E-02 6.91824E-03
 -1        51-8.78473E-03 2.10543E-01-1.30629E-02 5.13335E-03 5.95244E-03 5.70322E-03
 -1        52 3.83955E-03 6.06260E-03-5.57858E-03-1.01991E-03 9.69316E-04-1.48090E-03
 -1        53 3.71448E-03 6.06299E-03-6.08094E-03 9.43254E-04 9.43137E-04 1.64636E-03
 -1        54 1.94759E-03 1.88689E-02-4.36356E-03 7.20567E-04 2.09524E-03-9.66965E-05
 -1        55 2.69305E-03 1.84584E-02-4.56140E-03-3.99548E-04 1.22519E-03 1.44197E-04
 -1        56-1.47100E-02 2.03567E-01-1.47942E-02-4.48187E-03 7.94989E-03-7.87828E-03
 -1        57 2.86937E-03 1.14399E-01-3.34886E-03 1.44550E-03 8.04924E-03 1.00843E-03
 -1        58 5.51021E-03 1.57982E-01-1.96439E-03 2.36467E-03 1.29630E-02 1.90025E-04
 -1        59 1.78356E-03 1.64473E-01-6.92181E-03-6.50112E-04 1.00849E-02 9.17138E-04
 -1        60 8.27370E-03 1.90124E-01-5.57444E-03-1.25240E-03 1.21291E-02 5.41611E-04
 -1        61-1.39995E-03 3.37417E-02-5.62136E-03 1.18152E-03 1.91605E-03 3.15772E-04
 -1        62 2.20178E-03 6.84614E-02-6.79434E-03-1.91119E-04 4.88404E-03 1.25283E-03
 -1        63 2.36147E-03 1.11653E-01-2.53107E-03-2.45119E-03 6.72153E-03-9.12451E-04
 -1        64 2.63515E-03 8.63759E-02-5.90846E-03-3.93254E-04 6.57951E-03 1.01799E-05
 -1        65 1.97221E-03 6.85651E-02-6.65980E-03-5.90243E-05 4.42735E-03-1.15233E-03
 -1        66 1.28232E-03 2.58298E-02-5.47524E-03-1.04525E-03 4.74003E-03-8.17125E-05
 -1        67 3.24576E-03 3.55618E-02-3.70480E-03-1.30948E-03 2.95431E-03 4.64009E-04
 -1        68-6.64570E-04-7.98634E-04-2.90345E-04 5.49018E-04 1.74307E-02 9.04219E-05
 -1        69 7.50358E-02 1.46395E-01 6.76910E-02 1.71434E-02 2.01886E-02 5.16896E-03
 -1        70 7.52185E-02 1.46719E-01 6.80589E-02-1.67772E-02 1.99288E-02-5.12534E-03
 -1        71-7.50824E-02-1.46149E-01-6.76282E-02 1.70993E-02 1.92013E-02-5.10765E-03
 -1        72-7.46072E-02-1.46336E-01-6.74938E-02-1.65995E-02 1.91477E-02 5.30063E-03
 -1        73 1.30756E-03-5.78503E-03 1.38588E-04-3.70233E-04 1.15575E-03 1.56162E-04
 -1        74-2.56895E-03-5.03530E-02 1.16650E-03-1.40844E-04 3.78385E-03-5.51437E-05
 -1        75 3.08869E-03-1.32743E-01 3.54517E-04 8.04969E-04 1.15822E-02-4.71426E-04
 -1        76-5.58855E-03-2.44300E-01 7.54871E-03 1.26128E-03 2.06276E-02-9.87851E-04
 -1        77-6.48392E-02-2.87983E-01-2.78872E-02-1.78473E-02 2.34073E-02 6.61804E-03
 -1        78-6.10193E-02-2.87427E-01-2.73701E-02 1.68444E-02 2.33265E-02-7.17049E-03
 -1        79 1.91725E-03-2.14608E-01-7.03942E-04-3.98124E-03 1.33283E-02 7.94979E-04
 -1        80 4.41408E-03-2.04632E-01 3.17312E-03 6.83624E-03 1.40331E-02-5.44383E-04
 -1        81 9.40513E-04-1.61486E-03-5.97682E-04 2.01949E-04 5.54366E-04-6.51707E-05
 -1        82 1.07839E-03-1.43393E-03-5.35126E-04-3.69279E-04 3.24044E-04 1.19716E-04
 -1        83 9.64018E-04-1.35320E-02 9.22916E-04-1.43568E-03 2.48845E-03 2.54486E-04
 -1        84-1.93752E-04-1.75729E-02 6.21465E-04-4.35185E-05 3.63383E-03-9.40331E-06
 -1        85 6.52221E-04-6.58060E-02 2.76694E-03-3.54774E-04 5.52986E-03 5.11035E-04
 -1        86-2.66930E-04-3.80336E-02-1.31056E-03-1.28879E-03 4.29066E-03-5.83754E-04
 -1        87 5.69657E-04-2.48888E-02 4.10738E-04-1.70060E-04 5.22217E-03-2.42283E-04
 -1        88-4.60893E-04-3.14334E-02-6.94210E-04 7.87785E-04 3.92150E-03 2.46784E-04
 -1        89 9.78538E-04-1.52916E-01 6.22563E-03-1.43218E-03 1.28586E-02 1.61995E-03
 -1        90 1.17644E-04-1.12001E-01-2.76336E-03-5.64464E-04 7.57189E-03-3.95110E-04
 -1        91 6.51965E-04-6.70524E-02 2.36662E-03 9.87098E-04 4.94977E-03-6.80357E-04
 -1        92 1.01121E-03-8.45144E-02-2.54742E-04 3.04989E-04 6.45394E-03-4.44220E-05
 -1        93 4.90202E-04-1.08779E-01-3.66013E-03 2.20164E-03 6.95849E-03 7.10783E-04
 -1        94 3.19739E-03-1.59934E-01 5.07931E-03 1.87048E-03 8.03938E-03 4.64658E-05
 -1        95-4.45401E-03-1.86838E-01 2.26374E-03-3.94725E-04 7.03912E-03 1.57952E-03
 -1        96-2.99593E-03-1.13274E-03-2.50170E-03 1.47757E-05 1.06903E-03-2.77728E-05
 -1        97-1.47474E-03 1.72864E-05-1.17267E-02 1.01754E-03 2.48002E-03 2.79064E-03
 -1        98-1.59772E-03-2.44953E-04-1.20791E-02-9.82544E-04 2.44387E-03-2.88946E-03
 -1        99-6.70443E-04-5.02709E-04-2.84681E-04-1.83241E-04 4.90914E-04 6.36894E-05
 -1       100-6.39636E-04-5.96015E-04-3.27480E-04 2.31203E-04 5.72066E-04-1.59080E-04
 -1       101 8.00192E-04 7.38097E-03-2.90907E-03-4.24366E-04 3.87234E-02-1.07304E-02
 -1       102-1.05655E-03-1.23533E-03-2.38181E-03 5.25448E-04 6.85569E-03 5.60059E-05
 -1       103-9.24748E-04 2.88767E-03-3.95370E-03-4.15602E-04 2.52416E-02 3.49037E-04
 -1       104-4.36134E-04-3.23719E-04-2.85370E-03-1.19894E-04 1.49060E-02-3.50396E-04
 -1       105-3.12614E-04-7.42410E-05-1.26693E-03 1.10302E-03 3.36575E-03 1.63908E-04
 -1       106-1.21225E-04-1.18464E-03-1.20291E-02-1.24105E-03 5.83478E-03-2.09804E-03
 -1       107-7.01007E-04 8.10096E-03-7.15934E-03-7.26859E-04 4.54657E-03-9.59066E-04
 -1       108 5.60767E-02 1.56072E-01 3.79386E-02 1.64707E-02 2.57374E-02 3.14404E-03
 -1       109-5.70803E-02-1.56864E-01-4.40481E-02-1.72579E-02 2.39152E-02 2.22780E-03
 -1       110-5.58478E-03 1.01007E-01-7.48224E-03-6.01325E-03 2.60046E-02-8.98840E-03
 -1       111 2.07269E-02-9.24327E-02 6.56541E-03 6.96272E-03 2.45183E-02-7.81250E-03
 -1       112 4.34611E-04-1.06444E-02 4.82889E-04 9.01395E-04 7.68148E-03 4.10743E-05
 -1       113 3.95464E-03 4.56307E-02-5.45103E-03-3.59396E-03 2.01134E-02-8.20650E-04
 -1       114 1.10881E-04 9.01586E-02-8.20568E-03-3.34718E-03 2.14767E-02 9.92369E-04
 -1       115-3.25566E-03-1.47584E-03-5.35753E-03-3.78293E-03 1.99559E-02 3.61546E-04
 -1       116-1.23971E-03-8.87200E-02-3.12135E-04 1.57035E-03 1.91527E-02 1.61026E-03
 -1       117 3.67237E-04 1.28987E-02-6.33804E-03-2.00049E-03 1.16009E-02-2.40984E-03
 -1       118-5.30363E-03 3.57927E-02-1.18676E-02-2.22394E-03 1.33799E-02-1.58777E-03
 -1       119-6.06266E-03-4.96621E-02-6.79038E-03 2.46558E-03 1.85353E-02 3.33032E-04
 -1       120 4.14047E-04-3.96773E-04-6.36703E-03-3.39660E-05 1.82664E-02-7.88217E-04
 -1       121 5.22491E-03-3.77318E-02 2.40137E-03 1.77031E-03 1.41967E-02-1.82020E-04
 -1       122 3.49550E-05-1.89003E-04-5.77349E-03 5.39187E-04 8.67340E-03-1.84159E-03
 -1       123-1.33386E-03-1.41091E-02-1.98840E-03 1.34143E-03 1.11125E-02-8.25974E-04
 -1       124 2.07958E-03 2.77719E-03-7.42635E-04-3.28274E-05 3.76994E-02 1.16167E-02
 -1       125-8.82121E-04-2.60340E-03-2.56446E-03-5.18693E-04 7.15652E-03-6.89475E-05
 -1       126-1.22984E-03-8.77067E-04-5.15497E-03-9.77999E-04 2.58098E-02 2.41821E-04
 -1       127-1.05548E-04 5.48093E-04-2.80055E-03 4.37496E-04 1.69536E-02 1.78628E-04
 -1       128-5.72721E-02-1.57228E-01-4.32977E-02 1.71177E-02 2.38672E-02-2.19678E-03
 -1       129 5.66094E-02 1.55143E-01 3.94773E-02-1.68266E-02 2.55585E-02-2.76171E-03
 -1       130-6.51959E-03 1.05964E-01-5.56983E-03 5.53794E-03 2.43663E-02 9.09978E-03
 -1       131-8.66003E-05-1.41220E-03-1.20649E-02 1.05332E-03 6.02991E-03 2.13628E-03
 -1       132-3.09028E-04-9.98310E-04-1.08109E-03-6.56004E-04 3.34098E-03-2.67911E-04
 -1       133-8.71672E-04 7.02367E-03-6.16824E-03 1.14229E-03 6.00704E-03 4.84585E-04
 -1       134 1.76477E-02-9.81423E-02 4.03492E-03-6.52056E-03 2.40411E-02 7.54959E-03
 -1       135 3.88704E-04-8.59042E-03 1.66854E-05-1.27800E-03 6.08021E-03 7.13264E-04
 -1       136 6.39808E-04 7.88733E-02-9.49966E-03 1.28300E-03 2.16732E-02 6.20278E-04
 -1       137 3.26716E-03 4.83853E-02-5.37650E-03 1.80541E-03 2.04600E-02 1.12129E-03
 -1       138-6.04212E-03-4.36640E-03-7.45929E-03-8.47973E-04 2.08439E-02 1.23880E-03
 -1       139-9.06834E-04-8.22393E-02 1.41448E-03-2.45643E-03 2.09397E-02 2.66705E-03
 -1       140-4.84254E-03 3.55882E-02-1.15861E-02 1.92750E-03 1.39250E-02 1.69175E-03
 -1       141-7.63874E-04 1.75288E-02-4.01826E-03 1.28670E-03 1.29377E-02 5.10695E-04
 -1       142 2.47819E-04-6.04480E-04-6.60270E-03 7.69833E-05 1.91663E-02 7.04800E-04
 -1       143-3.68153E-03-4.95190E-02-5.68523E-03-2.49222E-03 1.91124E-02-9.29094E-04
 -1       144 4.53328E-03-3.72088E-02 2.00762E-03-1.46470E-03 1.49657E-02 6.46354E-04
 -1       145 7.99968E-04 2.22801E-03-4.15080E-03 1.79816E-05 7.95604E-03 4.91319E-04
 -1       146-2.54162E-04-1.74912E-02-5.13960E-03-1.64382E-03 1.01708E-02-1.29531E-03
 -1       147-1.41467E-03-2.97317E-04-7.24554E-04 6.30658E-05 1.78310E-02-3.36781E-04
 -1       148 6.98604E-03 1.14583E-01-1.58722E-03 2.53787E-03 2.43661E-02-8.13545E-04
 -1       149 4.21754E-03 1.20193E-02 4.82794E-04-9.16066E-04 3.65211E-02 2.13313E-04
 -1       150-5.43517E-03-1.29510E-01 9.47301E-05 3.41466E-05 3.08957E-02-7.17765E-03
 -1       151-6.71319E-04-1.34466E-01 1.25765E-03 1.76067E-04 2.91597E-02 7.17168E-03
 -1       152 6.01183E-04-9.40570E-03-1.77598E-03 5.85549E-04 2.04696E-02 1.19247E-03
 -1       153 8.21328E-04 2.67413E-02-4.26334E-03 1.17849E-03 1.02177E-02-8.59515E-04
 -1       154 4.19121E-04 1.75940E-02-2.88590E-03 8.43610E-04 1.11700E-02 2.87065E-04
 -1       155 1.25315E-03 2.80573E-02-4.07895E-03-1.27932E-03 8.54212E-03 3.43658E-04
 -1       156 2.51317E-03 4.94065E-03-5.49241E-04-1.78305E-04 1.56201E-02 3.09327E-04
 -1       157-1.82987E-03-3.35407E-03-5.39191E-03 6.68173E-04 1.61032E-02-1.11961E-03
 -1       158-2.32659E-03 3.73469E-03-8.89695E-03 8.19080E-04 1.94309E-02-7.08711E-04
 -1       159 4.14269E-04-6.55586E-02-1.67545E-03-1.32837E-04 1.97519E-02-1.44198E-04
 -1       160-2.41369E-03 6.27681E-02-6.38923E-03-3.81265E-04 1.82674E-02-2.86299E-04
 -1       161 5.07436E-04-3.34839E-03-1.24086E-03-3.83703E-04 4.11479E-03 1.04868E-04
 -1       162-3.70804E-04-1.18021E-03-1.78128E-03 9.43360E-05 6.68168E-03-2.67979E-04
 -1       163 1.80166E-03-6.85729E-03 1.21566E-03-4.13748E-04 5.60518E-03 1.09120E-04
 -1       164 7.48203E-04-1.66691E-03-9.10570E-04 5.11068E-04 3.95560E-03 1.97804E-04
 -1       165-7.10332E-04 2.29803E-03-4.50154E-03-3.35001E-04 3.71633E-03-9.80232E-04
 -1       166-1.33411E-03 1.82906E-03-4.67813E-03-2.93267E-05 3.76524E-03 1.10216E-03
 -1       167-2.02386E-03 7.66075E-03-5.77579E-03 3.06226E-04 6.04690E-03 5.71385E-04
 -1       168-6.22413E-03 6.00266E-02-7.05876E-03-1.57214E-03 1.63136E-02 9.64420E-04
 -1       169 2.01834E-03 8.95350E-02-4.66858E-03 1.73321E-03 2.14063E-02 7.94556E-04
 -1       170 1.10303E-03-6.55513E-02-2.36523E-03 1.06291E-03 1.74970E-02-5.85105E-04
 -1       171 1.94518E-03 1.36242E-01-9.31944E-03-1.38638E-03 2.85374E-02 6.70922E-03
 -1       172 2.38037E-04 1.36791E-01-9.46918E-03 3.23779E-04 2.74376E-02-6.65039E-03
 -1       173 1.23404E-03-2.95631E-04-1.04281E-03-2.69116E-04 1.00390E-02 1.05493E-04
 -1       174-2.45527E-03-2.79846E-02-2.18788E-03 7.74053E-04 9.02289E-03 3.53474E-04
 -1       175-1.61300E-03-2.66086E-02-1.73552E-03-7.66652E-04 1.09459E-02-2.05146E-04
 -1       176 9.47324E-04-7.83322E-02 3.20120E-03-8.26994E-04 2.02591E-02 7.33982E-05
 -1       177 1.62186E-03-7.72475E-03 7.58299E-05-2.33503E-04 2.34719E-02-1.81919E-03
 -1       178 2.08933E-03-9.64151E-02 1.46941E-03 1.08546E-03 2.22829E-02-8.82525E-04
 -1       179-1.86086E-03-1.87872E-02-2.87157E-03-6.62034E-05 8.98575E-03 6.48602E-05
 -1       180-6.44948E-04 4.26792E-04-2.31276E-03 4.68095E-04 8.32696E-03 5.40331E-04
 -1       181-1.28394E-03-1.12429E-03-2.10574E-03-5.73098E-04 3.93685E-03 2.09006E-04
 -1       182-1.10333E-03 3.04152E-03-2.03871E-03 1.99838E-05-7.26254E-04-3.43211E-05
 -1       183-1.51034E-03-7.86892E-04-2.21833E-03 6.60774E-04 4.00867E-03-2.90295E-04
 -1       184-4.74387E-04-3.01134E-03-2.09157E-03-1.08800E-04 1.50436E-03 9.98159E-05
 -1       185-1.67256E-04 1.12285E-03-9.10908E-04-1.47317E-05 3.06818E-02 7.52490E-03
 -1       186-1.19841E-03 1.23138E-01-1.25917E-02 1.48358E-04 1.96121E-02-2.12276E-04
 -1       187-1.51875E-03-4.21629E-04-3.43497E-03 6.41798E-04 3.07852E-02-7.28220E-03
 -1       188-2.53098E-03-1.27069E-01 5.66864E-03 4.73731E-06 1.88881E-02-5.41447E-04
 -1       189-6.52969E-04 2.18922E-04-1.95703E-03 3.75049E-04 1.69333E-02-3.92921E-04
 -1       190-3.86497E-04 3.46350E-04-1.84547E-03-4.85619E-04 1.64962E-02 3.26910E-04
 -1       191 1.23264E-03 2.85288E-02-4.04233E-03-1.64836E-04 1.10666E-02-2.68997E-04
 -1       192-3.23752E-03-2.91237E-02 1.51154E-04 3.75478E-04 9.82561E-03-3.04734E-04
 -1       193-5.04511E-03 5.86312E-02-4.13755E-03-7.84877E-06 1.29066E-02-4.21907E-04
 -1       194 4.85728E-03-5.74328E-02 1.64899E-03 7.96822E-04 1.35378E-02-3.97592E-04
 -1       195-1.04348E-03-1.09856E-03-2.29403E-03-5.80250E-04 2.12492E-02 1.38077E-03
 -1       196-2.34971E-03-1.30778E-03-2.54487E-03-1.82977E-04 2.05407E-02-1.85200E-03
 -1       197-8.02450E-05-4.24695E-02-6.23828E-05 8.13104E-04 1.46629E-02-5.53816E-04
 -1       198-1.76301E-04-4.29751E-02-1.88088E-04-5.77681E-04 1.48597E-02 1.59398E-04
 -1       199-3.39245E-04 4.26260E-02-5.58767E-03 6.01036E-04 1.51635E-02 1.58039E-03
 -1       200-3.01337E-04 4.23837E-02-5.52313E-03-7.11395E-04 1.49400E-02-1.99053E-03
 -3
    1PSTEP                         3           1           1          
  100CL  101 1.000000000         200                     0    1           1
 -4  TOSTRAIN    6    1
 -5  EXX         1    4    1    1
 -5  EYY         1    4    2    2
 -5  EZZ         1    4    3    3
 -5  EXY         1    4    1    2
 -5  EYZ         1    4    2    3
 -5  EZX         1    4    3    1
 -1         1-3.74081E-06 6.28890E-05-1.40415E-05-1.27715E-05 8.58756E-06-5.34094E-06
 -1         2 2.30476E-06 2.07562E-06-5.57063E-06 1.04376E-06 1.58906E-06 1.81820E-06
 -1         3 2.32754E-06 2.05175E-06-5.58913E-06-1.04764E-06 1.54390E-06-1.81969E-06
 -1         4-3.88947E-06 6.33373E-05-1.43249E-05 1.27107E-05 8.76141E-06 5.35209E-06
 -1         5 3.86224E-06-6.28209E-05 1.38536E-05 1.24823E-05 7.95520E-06-5.56078E-06
 -1         6 3.83453E-06-6.26533E-05 1.37008E-05-1.26122E-05 7.75362E-06 5.78534E-06
 -1         7 3.38078E-08-3.71026E-09 1.12548E-07-5.04755E-08-1.29215E-07-1.66733E-07
 -1         8 4.63570E-08 6.57525E-08 4.17825E-08 1.34094E-07-1.29520E-07 1.10124E-07
 -1         9-1.72379E-05 5.12789E-05-2.05914E-05 1.82021E-06 5.55278E-06 1.45341E-06
 -1        10-7.07008E-06 2.47210E-05-1.17022E-05 7.19130E-07 4.28038E-06 1.14555E-06
 -1        11-2.25456E-06 8.27863E-06-4.29816E-06 4.10242E-07 2.63997E-06 4.44399E-07
 -1        12-1.97040E-05 6.41185E-05-2.59142E-05-9.94598E-07 2.24292E-06-3.52948E-07
 -1        13-1.11822E-05 3.65280E-05-1.52769E-05 2.05952E-06 4.38673E-06 9.74305E-07
 -1        14-4.16772E-06 1.54016E-05-8.12072E-06 3.07998E-07 2.64479E-06 7.70500E-07
 -1        15 4.45229E-07 3.76050E-06-4.13737E-06 9.72653E-07 1.53177E-06 1.04502E-06
 -1        16 1.99052E-06 1.37397E-06-4.25453E-06-1.96235E-08 1.35127E-06-1.69576E-08
 -1        17-1.80007E-05 5.24948E-05-2.12931E-05-2.66654E-06 6.06373E-06-1.69487E-06
 -1        18-6.96031E-06 2.43888E-05-1.15803E-05-8.72984E-07 4.09802E-06-1.18986E-06
 -1        19-7.97967E-07 7.18330E-06-5.15882E-06-6.46043E-07 1.81384E-06-9.96979E-07
 -1        20-1.87665E-05 6.29704E-05-2.59363E-05 1.23344E-06 3.20999E-06-3.08951E-07
 -1        21-1.17163E-05 3.77967E-05-1.62456E-05-5.55901E-07 5.23534E-06-1.41123E-07
 -1        22-3.77704E-06 1.53947E-05-8.44150E-06-5.06374E-07 2.96714E-06-1.34236E-06
 -1        23 6.97587E-07 3.68017E-06-4.43341E-06-7.29832E-07 1.35634E-06-1.15129E-06
 -1        24 6.27828E-11 6.16400E-05 1.25783E-10-3.87147E-08 2.36731E-05-1.24529E-14
 -1        25-5.75502E-13-3.18074E-07 1.91653E-12 7.02298E-08-2.08978E-06-1.77135E-11
 -1        26-1.44360E-12 3.70086E-08 2.30900E-12-1.12915E-07-2.08971E-06 1.78448E-11
 -1        27-6.22575E-11-6.05543E-05-1.20676E-10 3.05476E-08 2.28990E-05 9.49940E-13
 -1        28 2.77625E-06-6.73179E-06 2.15210E-06-6.57016E-07 1.60259E-06-3.89331E-08
 -1        29 8.68924E-06-2.38402E-05 8.57788E-06-7.63072E-07 4.21092E-06 2.97984E-08
 -1        30 1.77155E-05-4.97615E-05 1.89444E-05-2.38963E-06 5.00407E-06 7.84620E-07
 -1        31 7.45028E-07-2.00317E-06 6.39134E-07-4.45443E-07 8.30602E-07 9.17938E-08
 -1        32 5.80650E-06-1.52608E-05 5.22386E-06-1.05613E-06 2.61457E-06-4.38048E-07
 -1        33 1.23156E-05-3.59705E-05 1.33280E-05-2.00171E-06 4.23995E-06 7.51555E-07
 -1        34 2.02772E-05-6.35900E-05 2.35717E-05 2.60458E-07 2.51960E-06-2.72457E-06
 -1        35 2.17763E-06-6.61313E-06 2.60846E-06 4.19434E-07 2.91697E-06-1.82970E-07
 -1        36 8.61146E-06-2.36198E-05 8.46660E-06 9.14578E-07 4.02302E-06-6.21034E-08
 -1        37 1.99851E-05-5.21590E-05 1.90659E-05 2.55150E-06 3.89115E-06 3.87359E-07
 -1        38 1.08756E-06-2.87056E-06 9.38673E-07 1.46436E-07 1.33067E-06 1.65319E-07
 -1        39 5.12234E-06-1.42983E-05 5.11672E-06 5.50055E-07 3.14807E-06-3.02536E-07
 -1        40 1.27893E-05-3.64962E-05 1.42252E-05 9.58056E-07 4.08301E-06 6.28545E-07
 -1        41 2.11355E-05-6.31730E-05 2.27326E-05-5.16625E-08 2.56304E-06 2.93393E-06
 -1        42 2.31855E-07 1.79092E-07-3.23866E-08 3.07491E-08-8.47102E-08-1.61159E-08
 -1        43 1.25216E-06 1.21537E-06-3.30878E-06 3.30929E-07 6.27740E-07 2.29766E-07
 -1        44 1.30537E-06 1.14127E-06-3.35333E-06-2.95332E-07 6.13745E-07-2.50627E-07
 -1        45-2.28652E-07 2.86272E-06-1.88908E-06-1.34724E-08-2.52550E-07 8.65384E-08
 -1        46-1.32929E-05 3.68565E-05-1.41386E-05-6.71185E-08 3.33964E-06-4.02351E-08
 -1        47-2.29303E-05 7.32268E-05-3.17329E-05 2.87263E-08 5.66503E-06-2.09083E-07
 -1        48-3.83112E-06 1.44515E-05-6.84478E-06-2.33621E-08 6.92400E-07 3.94862E-08
 -1        49-1.39051E-05 7.08494E-05-2.78047E-05-6.77473E-06 8.98970E-06-2.65822E-06
 -1        50-1.42451E-05 7.11052E-05-2.76609E-05 6.74572E-06 8.96803E-06 2.58484E-06
 -1        51-2.19444E-05 6.00022E-05-2.35428E-05 1.91796E-06 2.22399E-06 2.13087E-06
 -1        52 1.00695E-06 1.83754E-06-2.51191E-06-3.81066E-07 3.62162E-07-5.53305E-07
 -1        53 1.02224E-06 1.89970E-06-2.63759E-06 3.52425E-07 3.52381E-07 6.15122E-07
 -1        54-8.99543E-07 5.42271E-06-3.25756E-06 2.69223E-07 7.82838E-07-3.61284E-08
 -1        55-6.34584E-07 5.25578E-06-3.34504E-06-1.49282E-07 4.57762E-07 5.38757E-08
 -1        56-2.27110E-05 5.88430E-05-2.27425E-05-1.67454E-06 2.97029E-06-2.94353E-06
 -1        57-1.01947E-05 3.14757E-05-1.25180E-05 5.40078E-07 3.00741E-06 3.76776E-07
 -1        58-1.39165E-05 4.30509E-05-1.67092E-05 8.83503E-07 4.84333E-06 7.09984E-08
 -1        59-1.50920E-05 4.56930E-05-1.83445E-05-2.42899E-07 3.76800E-06 3.42667E-07
 -1        60-1.59792E-05 5.19650E-05-2.11532E-05-4.67928E-07 4.53176E-06 2.02360E-07
 -1        61-3.16573E-06 9.96412E-06-4.74297E-06 4.41447E-07 7.15886E-07 1.17981E-07
 -1        62-5.49405E-06 1.92623E-05-8.85524E-06-7.14071E-08 1.82481E-06 4.68091E-07
 -1        63-1.01435E-05 3.06907E-05-1.19715E-05-9.15831E-07 2.51134E-06-3.40916E-07
 -1        64-7.23438E-06 2.40534E-05-1.04265E-05-1.46930E-07 2.45828E-06 3.80350E-09
 -1        65-5.58068E-06 1.93002E-05-8.80583E-06-2.20530E-08 1.65417E-06-4.30540E-07
 -1        66-1.66080E-06 7.51079E-06-4.18561E-06-3.90531E-07 1.77100E-06-3.05299E-08
 -1        67-2.25900E-06 9.81511E-06-4.85591E-06-4.89256E-07 1.10381E-06 1.73366E-07
 -1        68-7.48730E-08-1.24963E-07 6.49473E-08 2.05128E-07 6.51256E-06 3.37840E-08
 -1        69-5.59078E-07 2.61025E-05-3.30329E-06 6.40522E-06 7.54298E-06 1.93126E-06
 -1        70-5.77394E-07 2.61372E-05-3.25238E-06-6.26841E-06 7.44592E-06-1.91496E-06
 -1        71 5.15739E-07-2.60365E-05 3.30082E-06 6.38875E-06 7.17411E-06-1.90835E-06
 -1        72 6.51497E-07-2.61482E-05 3.30927E-06-6.20199E-06 7.15409E-06 1.98046E-06
 -1        73 9.17661E-07-1.73232E-06 4.80900E-07-1.38329E-07 4.31818E-07 5.83463E-08
 -1        74 4.15885E-06-1.36945E-05 5.55451E-06-5.26229E-08 1.41374E-06-2.06031E-08
 -1        75 1.39419E-05-3.68084E-05 1.29203E-05 3.00758E-07 4.32742E-06-1.76137E-07
 -1        76 2.18797E-05-6.73094E-05 2.67881E-05 4.71246E-07 7.70701E-06-3.69087E-07
 -1        77 1.34270E-05-6.99456E-05 2.72332E-05-6.66824E-06 8.74558E-06 2.47267E-06
 -1        78 1.43702E-05-7.02216E-05 2.69425E-05 6.29351E-06 8.71539E-06-2.67908E-06
 -1        79 2.18214E-05-5.90784E-05 2.08420E-05-1.48750E-06 4.97981E-06 2.97025E-07
 -1        80 2.11372E-05-5.69679E-05 2.06735E-05 2.55420E-06 5.24313E-06-2.03396E-07
 -1        81 4.77206E-07-4.77550E-07-9.75043E-08 7.54536E-08 2.07126E-07-2.43495E-08
 -1        82 4.91003E-07-4.47665E-07-1.11850E-07-1.37972E-07 1.21071E-07 4.47291E-08
 -1        83 1.51189E-06-3.90421E-06 1.49654E-06-5.36409E-07 9.29752E-07 9.50826E-08
 -1        84 1.62329E-06-4.87003E-06 1.92788E-06-1.62596E-08 1.35770E-06-3.51332E-09
 -1        85 6.41382E-06-1.84167E-05 7.20393E-06-1.32553E-07 2.06610E-06 1.90936E-07
 -1        86 3.81785E-06-1.02928E-05 3.42792E-06-4.81526E-07 1.60310E-06-2.18106E-07
 -1        87 2.57741E-06-6.93456E-06 2.51803E-06-6.35388E-08 1.95114E-06-9.05233E-08
 -1        88 3.05084E-06-8.52131E-06 2.96367E-06 2.94337E-07 1.46518E-06 9.22051E-08
 -1        89 1.47766E-05-4.27223E-05 1.67371E-05-5.35102E-07 4.80430E-06 6.05254E-07
 -1        90 1.13826E-05-3.05077E-05 1.03062E-05-2.10899E-07 2.82906E-06-1.47624E-07
 -1        91 6.57661E-06-1.87195E-05 7.21725E-06 3.68806E-07 1.84936E-06-2.54199E-07
 -1        92 8.66157E-06-2.32931E-05 8.18857E-06 1.13952E-07 2.41136E-06-1.65972E-08
 -1        93 1.12550E-05-2.95708E-05 9.70434E-06 8.22590E-07 2.59987E-06 2.65567E-07
 -1        94 1.61937E-05-4.47564E-05 1.68968E-05 6.98859E-07 3.00373E-06 1.73609E-08
 -1        95 1.70310E-05-5.11125E-05 1.95409E-05-1.47480E-07 2.63000E-06 5.90149E-07
 -1        96-4.63606E-07 2.32528E-07-2.78951E-07 5.52059E-09 3.99416E-07-1.03767E-08
 -1        97 7.52928E-07 1.31039E-06-3.07749E-06 3.80180E-07 9.26602E-07 1.04265E-06
 -1        98 7.79931E-07 1.28536E-06-3.13620E-06-3.67104E-07 9.13096E-07-1.07958E-06
 -1        99-1.06314E-07-4.36442E-08 3.78169E-08-6.84637E-08 1.83418E-07 2.37960E-08
 -1       100-8.43896E-08-6.80916E-08 3.22403E-08 8.63834E-08 2.13739E-07-5.94365E-08
 -1       101-2.22442E-07 2.23631E-06-1.60832E-06-1.58554E-07 1.44681E-05-4.00914E-06
 -1       102 6.74766E-08 6.81819E-10-4.27673E-07 1.96321E-07 2.56147E-06 2.09253E-08
 -1       103-1.48620E-07 1.27580E-06-1.28032E-06-1.55280E-07 9.43094E-06 1.30409E-07
 -1       104 1.94434E-07 2.36435E-07-7.08834E-07-4.47955E-08 5.56929E-06-1.30917E-07
 -1       105 4.67603E-08 1.35823E-07-3.09797E-07 4.12119E-07 1.25753E-06 6.12403E-08
 -1       106 1.27355E-06 8.76226E-07-3.17553E-06-4.63690E-07 2.18003E-06-7.83883E-07
 -1       107-2.85712E-07 3.00293E-06-2.69871E-06-2.71574E-07 1.69872E-06-3.58332E-07
 -1       108-3.78213E-06 3.35786E-05-1.05590E-05 6.15390E-06 9.61617E-06 1.17470E-06
 -1       109 4.18901E-06-3.30927E-05 9.05819E-06-6.44800E-06 8.93536E-06 8.32363E-07
 -1       110-1.07840E-05 2.90416E-05-1.14929E-05-2.24671E-06 9.71602E-06-3.35830E-06
 -1       111 1.41866E-05-2.80928E-05 8.89547E-06 2.60146E-06 9.16070E-06-2.91895E-06
 -1       112 1.12438E-06-3.01503E-06 1.14242E-06 3.36785E-07 2.87000E-06 1.53464E-08
 -1       113-2.88738E-06 1.26839E-05-6.40158E-06-1.34280E-06 7.51489E-06-3.06616E-07
 -1       114-8.07477E-06 2.55694E-05-1.11821E-05-1.25060E-06 8.02425E-06 3.70775E-07
 -1       115-2.18584E-07 4.46404E-07-1.00390E-06-1.41340E-06 7.45603E-06 1.35083E-07
 -1       116 8.46480E-06-2.42201E-05 8.81136E-06 5.86723E-07 7.15596E-06 6.01635E-07
 -1       117-5.47967E-07 4.13412E-06-3.05323E-06-7.47437E-07 4.33439E-06-9.00380E-07
 -1       118-3.82326E-06 1.15314E-05-6.27575E-06-8.30922E-07 4.99908E-06-5.93234E-07
 -1       119 3.91765E-06-1.23723E-05 3.64575E-06 9.21207E-07 6.92528E-06 1.24429E-07
 -1       120 7.82697E-07 4.79753E-07-1.75089E-06-1.26906E-08 6.82482E-06-2.94499E-07
 -1       121 4.92963E-06-1.11201E-05 3.87468E-06 6.61435E-07 5.30426E-06-6.80074E-08
 -1       122 5.99300E-07 5.15623E-07-1.57089E-06 2.01454E-07 3.24061E-06-6.88068E-07
 -1       123 1.22561E-06-3.54755E-06 9.81061E-07 5.01193E-07 4.15191E-06-3.08606E-07
 -1       124 3.70092E-07 6.30739E-07-6.84360E-07-1.22652E-08 1.40855E-05 4.34031E-06
 -1       125 2.68766E-07-3.74349E-07-3.59800E-07-1.93797E-07 2.67386E-06-2.57606E-08
 -1       126 2.58707E-07 3.90513E-07-1.20783E-06-3.65406E-07 9.64322E-06 9.03508E-08
 -1       127 1.93774E-07 4.37991E-07-8.13150E-07 1.63460E-07 6.33429E-06 6.67402E-08
 -1       128 4.09817E-06-3.32481E-05 9.31934E-06 6.39564E-06 8.91742E-06-8.20775E-07
 -1       129-3.69609E-06 3.31185E-05-1.00971E-05-6.28684E-06 9.54934E-06-1.03185E-06
 -1       130-1.17202E-05 3.03066E-05-1.13653E-05 2.06912E-06 9.10389E-06 3.39992E-06
 -1       131 1.30911E-06 8.13834E-07-3.16631E-06 3.93547E-07 2.25293E-06 7.98171E-07
 -1       132 1.20757E-07-1.36777E-07-1.67705E-07-2.45101E-07 1.24828E-06-1.00098E-07
 -1       133-3.24073E-07 2.62584E-06-2.30301E-06 4.26791E-07 2.24439E-06 1.81054E-07
 -1       134 1.41556E-05-2.91066E-05 9.06950E-06-2.43625E-06 8.98240E-06 2.82073E-06
 -1       135 9.54739E-07-2.40010E-06 8.15743E-07-4.77495E-07 2.27173E-06 2.66494E-07
 -1       136-6.68536E-06 2.25447E-05-1.04737E-05 4.79364E-07 8.09769E-06 2.31752E-07
 -1       137-3.35604E-06 1.35013E-05-6.58554E-06 6.74550E-07 7.64440E-06 4.18944E-07
 -1       138-4.90350E-07 1.35745E-07-1.01984E-06-3.16825E-07 7.78782E-06 4.62848E-07
 -1       139 7.74453E-06-2.26434E-05 8.61183E-06-9.17787E-07 7.82362E-06 9.96481E-07
 -1       140-3.70421E-06 1.14018E-05-6.22377E-06 7.20163E-07 5.20276E-06 6.32083E-07
 -1       141-1.54606E-06 5.28857E-06-2.76199E-06 4.80744E-07 4.83388E-06 1.90809E-07
 -1       142 7.80880E-07 4.62439E-07-1.77865E-06 2.87630E-08 7.16105E-06 2.63332E-07
 -1       143 4.44835E-06-1.26777E-05 3.69971E-06-9.31158E-07 7.14088E-06-3.47134E-07
 -1       144 4.72684E-06-1.08691E-05 3.78319E-06-5.47250E-07 5.59159E-06 2.41495E-07
 -1       145 4.09937E-07 9.43491E-07-1.43980E-06 6.71839E-09 2.97258E-06 1.83570E-07
 -1       146 2.16838E-06-4.27181E-06 3.43052E-07-6.14176E-07 3.80009E-06-4.83960E-07
 -1       147-2.87580E-07 1.29891E-07-2.97362E-08 2.35630E-08 6.66214E-06-1.25830E-07
 -1       148-9.25616E-06 3.09449E-05-1.24594E-05 9.48217E-07 9.10383E-06-3.03962E-07
 -1       149-7.78057E-08 2.83714E-06-1.47321E-06-3.42266E-07 1.36452E-05 7.96995E-08
 -1       150 1.13061E-05-3.50514E-05 1.33722E-05 1.27581E-08 1.15435E-05-2.68176E-06
 -1       151 1.29900E-05-3.69993E-05 1.37108E-05 6.57834E-08 1.08948E-05 2.67953E-06
 -1       152 1.27104E-06-2.46780E-06 3.82871E-07 2.18776E-07 7.64800E-06 4.45538E-07
 -1       153-1.99746E-06 7.68694E-06-3.89723E-06 4.40316E-07 3.81759E-06-3.21137E-07
 -1       154-1.33950E-06 5.07748E-06-2.57434E-06 3.15195E-07 4.17339E-06 1.07255E-07
 -1       155-2.02721E-06 7.98751E-06-4.01942E-06-4.77989E-07 3.19156E-06 1.28400E-07
 -1       156 2.56117E-07 1.16309E-06-8.88082E-07-6.66195E-08 5.83610E-06 1.15573E-07
 -1       157 3.62275E-07-2.07206E-07-9.68596E-07 2.49647E-07 6.01660E-06-4.18316E-07
 -1       158-1.28620E-07 2.13603E-06-2.58348E-06 3.06030E-07 7.25988E-06-2.64793E-07
 -1       159 6.76333E-06-1.78859E-05 5.98256E-06-4.96313E-08 7.37983E-06-5.38762E-08
 -1       160-6.23904E-06 1.81146E-05-7.72440E-06-1.42451E-07 6.82518E-06-1.06969E-07
 -1       161 5.93287E-07-8.47350E-07-5.99235E-08-1.43362E-07 1.53739E-06 3.91814E-08
 -1       162 1.91026E-07-1.11389E-07-3.35967E-07 3.52464E-08 2.49645E-06-1.00124E-07
 -1       163 1.05292E-06-2.18229E-06 8.33979E-07-1.54587E-07 2.09424E-06 4.07702E-08
 -1       164 4.60466E-07-4.41883E-07-1.59296E-07 1.90949E-07 1.47792E-06 7.39046E-08
 -1       165 2.27828E-08 1.14679E-06-1.39371E-06-1.25165E-07 1.38852E-06-3.66240E-07
 -1       166-8.47384E-08 1.09711E-06-1.33415E-06-1.09572E-08 1.40679E-06 4.11797E-07
 -1       167-7.42430E-07 2.87599E-06-2.14425E-06 1.14414E-07 2.25928E-06 2.13484E-07
 -1       168-6.94850E-06 1.78045E-05-7.26034E-06-5.87392E-07 6.09520E-06 3.60333E-07
 -1       169-7.83889E-06 2.48596E-05-1.03373E-05 6.47572E-07 7.99796E-06 2.96867E-07
 -1       170 7.02005E-06-1.78838E-05 5.72422E-06 3.97130E-07 6.53733E-06-2.18610E-07
 -1       171-1.20184E-05 3.81585E-05-1.62272E-05-5.17990E-07 1.06623E-05 2.50674E-06
 -1       172-1.25268E-05 3.84928E-05-1.61537E-05 1.20972E-07 1.02514E-05-2.48476E-06
 -1       173 4.71396E-07-1.00130E-07-3.79296E-07-1.00549E-07 3.75083E-06 3.94151E-08
 -1       174 2.30957E-06-7.22887E-06 2.40947E-06 2.89206E-07 3.37119E-06 1.32067E-07
 -1       175 2.36013E-06-6.97888E-06 2.31436E-06-2.86441E-07 4.08966E-06-7.66481E-08
 -1       176 7.69079E-06-2.19301E-05 8.53290E-06-3.08987E-07 7.56935E-06 2.74235E-08
 -1       177 1.20205E-06-2.29009E-06 6.24415E-07-8.72430E-08 8.76972E-06-6.79697E-07
 -1       178 9.96423E-06-2.68396E-05 9.73261E-06 4.05555E-07 8.32548E-06-3.29734E-07
 -1       179 1.63085E-06-4.69327E-06 1.25322E-06-2.47353E-08 3.35731E-06 2.42335E-08
 -1       180 9.34109E-09 4.09771E-07-6.13798E-07 1.74893E-07 3.11117E-06 2.01882E-07
 -1       181-3.32768E-08 2.63727E-08-3.40324E-07-2.14125E-07 1.47091E-06 7.80900E-08
 -1       182-4.02291E-07 1.14633E-06-7.51776E-07 7.46649E-09-2.71348E-07-1.28233E-08
 -1       183-1.17708E-07 1.52590E-07-3.82234E-07 2.46882E-07 1.49774E-06-1.08462E-07
 -1       184 3.74357E-07-5.73514E-07-2.29865E-07-4.06505E-08 5.62068E-07 3.72939E-08
 -1       185-6.69104E-08 4.15106E-07-3.44758E-07-5.50414E-09 1.14635E-05 2.81150E-06
 -1       186-1.12623E-05 3.51929E-05-1.55192E-05 5.54305E-08 7.32760E-06-7.93121E-08
 -1       187-3.58177E-08 3.74096E-07-7.51767E-07 2.39793E-07 1.15022E-05-2.72082E-06
 -1       188 1.13113E-05-3.52194E-05 1.43749E-05 1.76998E-09 7.05709E-06-2.02299E-07
 -1       189-7.48662E-09 3.18275E-07-4.94717E-07 1.40128E-07 6.32674E-06-1.46806E-07
 -1       190 4.20842E-08 3.15895E-07-5.03027E-07-1.81440E-07 6.16342E-06 1.22142E-07
 -1       191-2.08310E-06 8.11547E-06-4.05397E-06-6.15871E-08 4.13479E-06-1.00505E-07
 -1       192 1.97598E-06-7.69576E-06 3.24208E-06 1.40288E-07 3.67111E-06-1.13857E-07
 -1       193-6.77550E-06 1.70157E-05-6.43642E-06-2.93251E-09 4.82226E-06-1.57635E-07
 -1       194 6.85149E-06-1.64217E-05 5.65279E-06 2.97714E-07 5.05809E-06-1.48551E-07
 -1       195 4.88601E-08 2.82821E-08-4.18379E-07-2.16797E-07 7.93924E-06 5.15891E-07
 -1       196-2.64493E-07 1.24799E-07-3.37411E-07-6.83651E-08 7.67455E-06-6.91955E-07
 -1       197 4.18440E-06-1.16533E-05 4.19108E-06 3.03797E-07 5.47846E-06-2.06920E-07
 -1       198 4.22045E-06-1.17703E-05 4.21605E-06-2.15837E-07 5.55198E-06 5.95553E-08
 -1       199-3.75633E-06 1.22966E-05-5.71728E-06 2.24563E-07 5.66547E-06 5.90476E-07
 -1       200-3.72833E-06 1.22199E-05-5.67934E-06-2.65796E-07 5.58197E-06-7.43714E-07
 -3
    1PSTEP                         4           1           1          
  100CL  101 1.000000000         200                     0    1           1
 -4  ERROR       1    1
 -5  STR(%)      1    1    0    0
 -1         1 4.49819E+01
 -1         2 3.40193E+01
 -1         3 3.40193E+01
 -1         4 4.51373E+01
 -1         5 4.49819E+01
 -1         6 4.51373E+01
 -1         7 3.04061E+01
 -1         8 3.04061E+01
 -1         9 3.12273E+01
 -1        10 2.71991E+01
 -1        11 2.84728E+01
 -1        12 3.81046E+01
 -1        13 2.92132E+01
 -1        14 2.78359E+01
 -1        15 3.12460E+01
 -1        16 3.40193E+01
 -1        17 2.85216E+01
 -1        18 2.70529E+01
 -1        19 2.84728E+01
 -1        20 3.68295E+01
 -1        21 2.77873E+01
 -1        22 2.77629E+01
 -1        23 3.12460E+01
 -1        24 4.50596E+01
 -1        25 4.49819E+01
 -1        26 4.51373E+01
 -1        27 4.50596E+01
 -1        28 2.29010E+01
 -1        29 2.71991E+01
 -1        30 2.85452E+01
 -1        31 2.66536E+01
 -1        32 2.50500E+01
 -1        33 2.78722E+01
 -1        34 3.67636E+01
 -1        35 2.84728E+01
 -1        36 2.70529E+01
 -1        37 2.85216E+01
 -1        38 2.94394E+01
 -1        39 2.77629E+01
 -1        40 2.77873E+01
 -1        41 3.68295E+01
 -1        42 3.04061E+01
 -1        43 3.22127E+01
 -1        44 3.22127E+01
 -1        45 3.40193E+01
 -1        46 3.12273E+01
 -1        47 2.05302E+01
 -1        48 1.83542E+01
 -1        49 3.27560E+01
 -1        50 3.28337E+01
 -1        51 2.58787E+01
 -1        52 3.40193E+01
 -1        53 3.40193E+01
 -1        54 3.12460E+01
 -1        55 3.12460E+01
 -1        56 2.45259E+01
 -1        57 2.92132E+01
 -1        58 3.12273E+01
 -1        59 2.98744E+01
 -1        60 2.98744E+01
 -1        61 2.34135E+01
 -1        62 2.27766E+01
 -1        63 2.91401E+01
 -1        64 2.71260E+01
 -1        65 2.27035E+01
 -1        66 2.84728E+01
 -1        67 2.34135E+01
 -1        68 4.51373E+01
 -1        69 4.51373E+01
 -1        70 4.50596E+01
 -1        71 4.50596E+01
 -1        72 4.51373E+01
 -1        73 3.04061E+01
 -1        74 2.29010E+01
 -1        75 3.12273E+01
 -1        76 2.97987E+01
 -1        77 3.74680E+01
 -1        78 3.73903E+01
 -1        79 2.91720E+01
 -1        80 2.91601E+01
 -1        81 3.04061E+01
 -1        82 3.04061E+01
 -1        83 2.66536E+01
 -1        84 2.94394E+01
 -1        85 2.50500E+01
 -1        86 2.29010E+01
 -1        87 2.56869E+01
 -1        88 2.56869E+01
 -1        89 2.98862E+01
 -1        90 2.92132E+01
 -1        91 2.49770E+01
 -1        92 2.71260E+01
 -1        93 2.91401E+01
 -1        94 2.98744E+01
 -1        95 2.85334E+01
 -1        96 3.40193E+01
 -1        97 3.40193E+01
 -1        98 3.40193E+01
 -1        99 3.22127E+01
 -1       100 3.22127E+01
 -1       101 4.51373E+01
 -1       102 2.50303E+01
 -1       103 3.12273E+01
 -1       104 2.84728E+01
 -1       105 2.77182E+01
 -1       106 2.95248E+01
 -1       107 2.67515E+01
 -1       108 4.51373E+01
 -1       109 4.51373E+01
 -1       110 3.68295E+01
 -1       111 3.68295E+01
 -1       112 2.67515E+01
 -1       113 2.91401E+01
 -1       114 2.98744E+01
 -1       115 2.85216E+01
 -1       116 2.98744E+01
 -1       117 2.84728E+01
 -1       118 2.77629E+01
 -1       119 2.91401E+01
 -1       120 2.70529E+01
 -1       121 2.77629E+01
 -1       122 2.84728E+01
 -1       123 2.84728E+01
 -1       124 4.49819E+01
 -1       125 2.50303E+01
 -1       126 3.00358E+01
 -1       127 2.29010E+01
 -1       128 4.49819E+01
 -1       129 4.49819E+01
 -1       130 3.81046E+01
 -1       131 2.95248E+01
 -1       132 2.77182E+01
 -1       133 2.67515E+01
 -1       134 3.67636E+01
 -1       135 2.39657E+01
 -1       136 3.06315E+01
 -1       137 2.86174E+01
 -1       138 2.98862E+01
 -1       139 2.92905E+01
 -1       140 2.50500E+01
 -1       141 2.56869E+01
 -1       142 2.71991E+01
 -1       143 2.86174E+01
 -1       144 2.50500E+01
 -1       145 2.56869E+01
 -1       146 2.29010E+01
 -1       147 2.71991E+01
 -1       148 3.81823E+01
 -1       149 4.50596E+01
 -1       150 3.74680E+01
 -1       151 3.73903E+01
 -1       152 3.05130E+01
 -1       153 2.06276E+01
 -1       154 2.84728E+01
 -1       155 2.34135E+01
 -1       156 2.56869E+01
 -1       157 3.12273E+01
 -1       158 3.12273E+01
 -1       159 3.06315E+01
 -1       160 3.06315E+01
 -1       161 2.77182E+01
 -1       162 2.50303E+01
 -1       163 2.39657E+01
 -1       164 2.77182E+01
 -1       165 2.95248E+01
 -1       166 2.95248E+01
 -1       167 2.67515E+01
 -1       168 3.12273E+01
 -1       169 3.12273E+01
 -1       170 3.12273E+01
 -1       171 3.27560E+01
 -1       172 3.28337E+01
 -1       173 2.56869E+01
 -1       174 2.56869E+01
 -1       175 2.29010E+01
 -1       176 2.98862E+01
 -1       177 2.91601E+01
 -1       178 3.05130E+01
 -1       179 2.56869E+01
 -1       180 2.84728E+01
 -1       181 2.95248E+01
 -1       182 3.40193E+01
 -1       183 2.95248E+01
 -1       184 3.22127E+01
 -1       185 4.50596E+01
 -1       186 3.28337E+01
 -1       187 4.51373E+01
 -1       188 3.74680E+01
 -1       189 2.50500E+01
 -1       190 2.78359E+01
 -1       191 2.27766E+01
 -1       192 2.50500E+01
 -1       193 2.92132E+01
 -1       194 2.92132E+01
 -1       195 2.86174E+01
 -1       196 2.92132E+01
 -1       197 2.71260E+01
 -1       198 2.71991E+01
 -1       199 2.71991E+01
 -1       200 2.71260E+01
 -3
 9999
